Route #1: 75 68 6 51 17
Route #2: 67 34 46 8
Route #3: 26 12 40 32
Route #4: 4 45 29 48
Route #5: 7 35 53 14 19
Route #6: 52 27 13 54 57 15
Route #7: 30 74 28 62 73
Route #8: 2 33 63 16 3
Route #9: 58 72 39 9 25
Route #10: 44 50 18 24 49 23
Route #11: 5 37 20 70 60 71 36
Route #12: 1 43 41 42 64
Route #13: 10 38 65 11
Route #14: 47 21 61 22 56
Route #15: 66 59 31 55
Route #16: 69
cost: 1208
